\ SCIP STATISTICS
\   Problem name     : model
\   Variables        : 54 (0 binary, 0 integer, 0 implicit integer, 54 continuous)
\   Constraints      : 35
Minimize
 Obj: +25.0317319204585 x66
Subject to
 c1: +1 x00 >= +0
 c2: +1 y1 -1 y0 +1 x01 >= +0
 c3: +1 y2 -1 y0 +1 x02 >= +0
 c4: +1 y4 -1 y0 +1 x04 >= +0
 c5: +1 y5 -1 y0 +1 x05 >= +0
 c6: +1 y0 -1 y1 +1 x10 >= +0
 c7: +1 x11 >= +0
 c8: +1 y2 -1 y1 +1 x12 >= +0
 c9: +1 y4 -1 y1 +1 x14 >= +0
 c10: +1 y5 -1 y1 +1 x15 >= +0
 c11: +1 y0 -1 y2 +1 x20 >= +0
 c12: +1 y1 -1 y2 +1 x21 >= +0
 c13: +1 x22 >= +0
 c14: +1 y4 -1 y2 +1 x24 >= +0
 c15: +1 y5 -1 y2 +1 x25 >= +0
 c16: +1 y0 -1 y4 +1 x40 >= +0
 c17: +1 y1 -1 y4 +1 x41 >= +0
 c18: +1 y2 -1 y4 +1 x42 >= +0
 c19: +1 x44 >= +0
 c20: +1 y5 -1 y4 +1 x45 >= +0
 c21: +1 y0 -1 y5 +1 x50 >= +0
 c22: +1 y1 -1 y5 +1 x51 >= +0
 c23: +1 y2 -1 y5 +1 x52 >= +0
 c24: +1 y4 -1 y5 +1 x54 >= +0
 c25: +1 x55 >= +0
 c26: +1 x30 +1 y0 >= +1
 c27: +1 x31 +1 y1 >= +1
 c28: +1 x32 +1 y2 >= +1
 c29: +1 x34 +1 y4 >= +1
 c30: +1 x35 +1 y5 >= +1
 c31: +1 x06 -1 y0 >= +0
 c32: +1 x16 -1 y1 >= +0
 c33: +1 x26 -1 y2 >= +0
 c34: +1 x46 -1 y4 >= +0
 c35: +1 x56 -1 y5 >= +0
Bounds
 1 <= x00
 1 <= x01
 1 <= x02
 1 <= x03
 1 <= x04
 1 <= x05
 1 <= x06
 y0 free
 1 <= x10
 1 <= x11
 1 <= x12
 1 <= x13
 1 <= x14
 1 <= x15
 1 <= x16
 y1 free
 1 <= x20
 1 <= x21
 1 <= x22
 1 <= x23
 1 <= x24
 1 <= x25
 1 <= x26
 y2 free
 1 <= x30
 1 <= x31
 1 <= x32
 1 <= x33
 1 <= x34
 1 <= x35
 1 <= x36
 1 <= x40
 1 <= x41
 1 <= x42
 1 <= x43
 1 <= x44
 1 <= x45
 1 <= x46
 y4 free
 1 <= x50
 1 <= x51
 1 <= x52
 1 <= x53
 1 <= x54
 1 <= x55
 1 <= x56
 y5 free
 1 <= x60
 1 <= x61
 1 <= x62
 1 <= x63
 1 <= x64
 1 <= x65
 1 <= x66
End
